p edge 8 28
e 1 2 -859.0
e 1 3 402.0
e 1 4 -406.0
e 1 5 687.0
e 1 6 418.0
e 1 7 -1.0
e 1 8 237.0
e 2 3 319.0
e 2 4 184.0
e 2 5 923.0
e 2 6 798.0
e 2 7 262.0
e 2 8 -547.0
e 3 4 91.0
e 3 5 565.0
e 3 6 764.0
e 3 7 -857.0
e 3 8 829.0
e 4 5 534.0
e 4 6 742.0
e 4 7 -695.0
e 4 8 -105.0
e 5 6 -132.0
e 5 7 613.0
e 5 8 961.0
e 6 7 178.0
e 6 8 -326.0
e 7 8 -31.0
